c Modular CNF with 4 modules
c Generated CNF instance
p cnf 40 640
8 9 6 0
8 9 -6 0
8 -9 6 0
-8 9 6 0
4 8 9 0
4 8 -9 0
4 -8 9 0
-4 8 9 0
9 8 7 0
9 8 -7 0
9 -8 7 0
-9 8 7 0
1 6 2 0
1 6 -2 0
1 -6 2 0
-1 6 2 0
8 9 10 0
8 9 -10 0
8 -9 10 0
-8 9 10 0
9 2 5 0
9 2 -5 0
9 -2 5 0
-9 2 5 0
6 9 1 0
6 9 -1 0
6 -9 1 0
-6 9 1 0
4 9 1 0
4 9 -1 0
4 -9 1 0
-4 9 1 0
6 4 1 0
6 4 -1 0
6 -4 1 0
-6 4 1 0
3 7 6 0
3 7 -6 0
3 -7 6 0
-3 7 6 0
1 9 4 0
1 9 -4 0
1 -9 4 0
-1 9 4 0
7 1 5 0
7 1 -5 0
7 -1 5 0
-7 1 5 0
7 3 5 0
7 3 -5 0
7 -3 5 0
-7 3 5 0
7 10 4 0
7 10 -4 0
7 -10 4 0
-7 10 4 0
4 5 8 0
4 5 -8 0
4 -5 8 0
-4 5 8 0
4 3 9 0
4 3 -9 0
4 -3 9 0
-4 3 9 0
10 5 3 0
10 5 -3 0
10 -5 3 0
-10 5 3 0
1 7 4 0
1 7 -4 0
1 -7 4 0
-1 7 4 0
6 8 10 0
6 8 -10 0
6 -8 10 0
-6 8 10 0
3 9 7 0
3 9 -7 0
3 -9 7 0
-3 9 7 0
7 2 4 0
7 2 -4 0
7 -2 4 0
-7 2 4 0
1 7 3 0
1 7 -3 0
1 -7 3 0
-1 7 3 0
9 5 4 0
9 5 -4 0
9 -5 4 0
-9 5 4 0
2 8 7 0
2 8 -7 0
2 -8 7 0
-2 8 7 0
7 6 10 0
7 6 -10 0
7 -6 10 0
-7 6 10 0
10 3 1 0
10 3 -1 0
10 -3 1 0
-10 3 1 0
9 8 1 0
9 8 -1 0
9 -8 1 0
-9 8 1 0
1 6 3 0
1 6 -3 0
1 -6 3 0
-1 6 3 0
4 7 9 0
4 7 -9 0
4 -7 9 0
-4 7 9 0
8 9 1 0
8 9 -1 0
8 -9 1 0
-8 9 1 0
4 8 6 0
4 8 -6 0
4 -8 6 0
-4 8 6 0
7 10 9 0
7 10 -9 0
7 -10 9 0
-7 10 9 0
3 5 2 0
3 5 -2 0
3 -5 2 0
-3 5 2 0
10 6 9 0
10 6 -9 0
10 -6 9 0
-10 6 9 0
1 10 6 0
1 10 -6 0
1 -10 6 0
-1 10 6 0
1 8 10 0
1 8 -10 0
1 -8 10 0
-1 8 10 0
2 9 3 0
2 9 -3 0
2 -9 3 0
-2 9 3 0
3 7 2 0
3 7 -2 0
3 -7 2 0
-3 7 2 0
5 9 2 0
5 9 -2 0
5 -9 2 0
-5 9 2 0
8 6 5 0
8 6 -5 0
8 -6 5 0
-8 6 5 0
15 11 12 0
15 11 -12 0
15 -11 12 0
-15 11 12 0
17 15 16 0
17 15 -16 0
17 -15 16 0
-17 15 16 0
13 17 14 0
13 17 -14 0
13 -17 14 0
-13 17 14 0
17 15 12 0
17 15 -12 0
17 -15 12 0
-17 15 12 0
19 13 18 0
19 13 -18 0
19 -13 18 0
-19 13 18 0
12 17 11 0
12 17 -11 0
12 -17 11 0
-12 17 11 0
20 16 15 0
20 16 -15 0
20 -16 15 0
-20 16 15 0
14 16 11 0
14 16 -11 0
14 -16 11 0
-14 16 11 0
11 14 18 0
11 14 -18 0
11 -14 18 0
-11 14 18 0
16 14 13 0
16 14 -13 0
16 -14 13 0
-16 14 13 0
13 15 12 0
13 15 -12 0
13 -15 12 0
-13 15 12 0
14 20 19 0
14 20 -19 0
14 -20 19 0
-14 20 19 0
12 16 18 0
12 16 -18 0
12 -16 18 0
-12 16 18 0
11 14 20 0
11 14 -20 0
11 -14 20 0
-11 14 20 0
19 12 17 0
19 12 -17 0
19 -12 17 0
-19 12 17 0
16 11 12 0
16 11 -12 0
16 -11 12 0
-16 11 12 0
13 17 20 0
13 17 -20 0
13 -17 20 0
-13 17 20 0
14 19 20 0
14 19 -20 0
14 -19 20 0
-14 19 20 0
16 17 19 0
16 17 -19 0
16 -17 19 0
-16 17 19 0
16 13 19 0
16 13 -19 0
16 -13 19 0
-16 13 19 0
17 19 11 0
17 19 -11 0
17 -19 11 0
-17 19 11 0
13 11 17 0
13 11 -17 0
13 -11 17 0
-13 11 17 0
20 18 11 0
20 18 -11 0
20 -18 11 0
-20 18 11 0
14 15 16 0
14 15 -16 0
14 -15 16 0
-14 15 16 0
14 16 12 0
14 16 -12 0
14 -16 12 0
-14 16 12 0
14 13 12 0
14 13 -12 0
14 -13 12 0
-14 13 12 0
13 20 11 0
13 20 -11 0
13 -20 11 0
-13 20 11 0
20 17 16 0
20 17 -16 0
20 -17 16 0
-20 17 16 0
17 18 13 0
17 18 -13 0
17 -18 13 0
-17 18 13 0
19 16 15 0
19 16 -15 0
19 -16 15 0
-19 16 15 0
15 19 20 0
15 19 -20 0
15 -19 20 0
-15 19 20 0
18 17 15 0
18 17 -15 0
18 -17 15 0
-18 17 15 0
12 17 16 0
12 17 -16 0
12 -17 16 0
-12 17 16 0
12 19 11 0
12 19 -11 0
12 -19 11 0
-12 19 11 0
16 20 17 0
16 20 -17 0
16 -20 17 0
-16 20 17 0
17 18 20 0
17 18 -20 0
17 -18 20 0
-17 18 20 0
12 18 17 0
12 18 -17 0
12 -18 17 0
-12 18 17 0
18 17 20 0
18 17 -20 0
18 -17 20 0
-18 17 20 0
11 18 15 0
11 18 -15 0
11 -18 15 0
-11 18 15 0
20 12 13 0
20 12 -13 0
20 -12 13 0
-20 12 13 0
27 23 30 0
27 23 -30 0
27 -23 30 0
-27 23 30 0
29 24 28 0
29 24 -28 0
29 -24 28 0
-29 24 28 0
26 21 25 0
26 21 -25 0
26 -21 25 0
-26 21 25 0
23 26 27 0
23 26 -27 0
23 -26 27 0
-23 26 27 0
26 22 25 0
26 22 -25 0
26 -22 25 0
-26 22 25 0
30 27 22 0
30 27 -22 0
30 -27 22 0
-30 27 22 0
22 28 23 0
22 28 -23 0
22 -28 23 0
-22 28 23 0
25 26 29 0
25 26 -29 0
25 -26 29 0
-25 26 29 0
23 21 27 0
23 21 -27 0
23 -21 27 0
-23 21 27 0
29 22 28 0
29 22 -28 0
29 -22 28 0
-29 22 28 0
28 21 27 0
28 21 -27 0
28 -21 27 0
-28 21 27 0
25 24 30 0
25 24 -30 0
25 -24 30 0
-25 24 30 0
26 27 30 0
26 27 -30 0
26 -27 30 0
-26 27 30 0
22 26 28 0
22 26 -28 0
22 -26 28 0
-22 26 28 0
30 27 21 0
30 27 -21 0
30 -27 21 0
-30 27 21 0
25 21 26 0
25 21 -26 0
25 -21 26 0
-25 21 26 0
23 25 27 0
23 25 -27 0
23 -25 27 0
-23 25 27 0
25 21 23 0
25 21 -23 0
25 -21 23 0
-25 21 23 0
23 30 25 0
23 30 -25 0
23 -30 25 0
-23 30 25 0
24 30 21 0
24 30 -21 0
24 -30 21 0
-24 30 21 0
22 26 29 0
22 26 -29 0
22 -26 29 0
-22 26 29 0
25 29 28 0
25 29 -28 0
25 -29 28 0
-25 29 28 0
23 24 27 0
23 24 -27 0
23 -24 27 0
-23 24 27 0
26 23 27 0
26 23 -27 0
26 -23 27 0
-26 23 27 0
30 29 22 0
30 29 -22 0
30 -29 22 0
-30 29 22 0
29 28 30 0
29 28 -30 0
29 -28 30 0
-29 28 30 0
21 23 24 0
21 23 -24 0
21 -23 24 0
-21 23 24 0
24 30 27 0
24 30 -27 0
24 -30 27 0
-24 30 27 0
30 25 28 0
30 25 -28 0
30 -25 28 0
-30 25 28 0
29 30 28 0
29 30 -28 0
29 -30 28 0
-29 30 28 0
27 23 24 0
27 23 -24 0
27 -23 24 0
-27 23 24 0
21 30 25 0
21 30 -25 0
21 -30 25 0
-21 30 25 0
25 24 21 0
25 24 -21 0
25 -24 21 0
-25 24 21 0
28 29 23 0
28 29 -23 0
28 -29 23 0
-28 29 23 0
21 25 22 0
21 25 -22 0
21 -25 22 0
-21 25 22 0
30 25 22 0
30 25 -22 0
30 -25 22 0
-30 25 22 0
29 28 26 0
29 28 -26 0
29 -28 26 0
-29 28 26 0
26 21 29 0
26 21 -29 0
26 -21 29 0
-26 21 29 0
28 27 29 0
28 27 -29 0
28 -27 29 0
-28 27 29 0
29 30 27 0
29 30 -27 0
29 -30 27 0
-29 30 27 0
40 31 36 0
40 31 -36 0
40 -31 36 0
-40 31 36 0
31 38 33 0
31 38 -33 0
31 -38 33 0
-31 38 33 0
35 40 34 0
35 40 -34 0
35 -40 34 0
-35 40 34 0
35 37 31 0
35 37 -31 0
35 -37 31 0
-35 37 31 0
33 37 36 0
33 37 -36 0
33 -37 36 0
-33 37 36 0
35 37 34 0
35 37 -34 0
35 -37 34 0
-35 37 34 0
38 35 31 0
38 35 -31 0
38 -35 31 0
-38 35 31 0
31 32 38 0
31 32 -38 0
31 -32 38 0
-31 32 38 0
39 33 38 0
39 33 -38 0
39 -33 38 0
-39 33 38 0
32 34 31 0
32 34 -31 0
32 -34 31 0
-32 34 31 0
32 38 31 0
32 38 -31 0
32 -38 31 0
-32 38 31 0
36 39 32 0
36 39 -32 0
36 -39 32 0
-36 39 32 0
34 31 38 0
34 31 -38 0
34 -31 38 0
-34 31 38 0
36 40 33 0
36 40 -33 0
36 -40 33 0
-36 40 33 0
37 33 31 0
37 33 -31 0
37 -33 31 0
-37 33 31 0
39 40 31 0
39 40 -31 0
39 -40 31 0
-39 40 31 0
35 37 31 0
35 37 -31 0
35 -37 31 0
-35 37 31 0
33 40 32 0
33 40 -32 0
33 -40 32 0
-33 40 32 0
31 39 35 0
31 39 -35 0
31 -39 35 0
-31 39 35 0
36 31 35 0
36 31 -35 0
36 -31 35 0
-36 31 35 0
38 36 33 0
38 36 -33 0
38 -36 33 0
-38 36 33 0
35 32 33 0
35 32 -33 0
35 -32 33 0
-35 32 33 0
40 35 33 0
40 35 -33 0
40 -35 33 0
-40 35 33 0
39 36 37 0
39 36 -37 0
39 -36 37 0
-39 36 37 0
36 33 37 0
36 33 -37 0
36 -33 37 0
-36 33 37 0
36 32 38 0
36 32 -38 0
36 -32 38 0
-36 32 38 0
32 38 39 0
32 38 -39 0
32 -38 39 0
-32 38 39 0
40 32 39 0
40 32 -39 0
40 -32 39 0
-40 32 39 0
40 37 36 0
40 37 -36 0
40 -37 36 0
-40 37 36 0
34 32 36 0
34 32 -36 0
34 -32 36 0
-34 32 36 0
38 35 37 0
38 35 -37 0
38 -35 37 0
-38 35 37 0
39 36 33 0
39 36 -33 0
39 -36 33 0
-39 36 33 0
36 32 38 0
36 32 -38 0
36 -32 38 0
-36 32 38 0
33 40 36 0
33 40 -36 0
33 -40 36 0
-33 40 36 0
39 34 35 0
39 34 -35 0
39 -34 35 0
-39 34 35 0
36 31 39 0
36 31 -39 0
36 -31 39 0
-36 31 39 0
40 33 39 0
40 33 -39 0
40 -33 39 0
-40 33 39 0
37 33 31 0
37 33 -31 0
37 -33 31 0
-37 33 31 0
38 35 39 0
38 35 -39 0
38 -35 39 0
-38 35 39 0
32 36 34 0
32 36 -34 0
32 -36 34 0
-32 36 34 0
